db/data/53651159005284431578209582645313603.z3.out
-------------------
2500.116381597
